Data/raw/in5 - small.txt
8 15 6

1688 2062 1952 6635 907 2336 5012 7221

2314 2004 1854 1677 5625 4561 3992 1398 4855 360 6161 5164 6441 974 1530
5297 3479 2620 4439 3738 1054 4731 2983 1594 6792 4935 7080 6550 6122 4591
6271 935 6594 624 1463 3571 5184 5454 4968 1390 5814 2480 6554 4754 2305
583 1402 4635 2054 4692 873 3108 1922 2707 3553 65 6493 3132 6615 3967
222 4237 3753 5668 4860 5216 1738 1395 3169 5557 2785 1482 6888 1838 5087
545 1272 5340 5179 3326 2531 4903 5285 3304 6462 189 3369 5454 3320 1335
1920 3541 5571 5673 560 1782 3388 2297 3176 6556 6705 4812 6890 4945 6649
4476 5489 6773 2316 3167 1450 3698 6922 5586 7002 5883 5774 1722 2688 1593

10 2  3985
7 11  4545
3 8  5693
5 0  3750
2 11  1194
12 9  6682